50
504 87 29 56 224 232 58 56 58 261 560 203 58 448 87 116 29 87 280 261 29 168 145 56 392 448 29 280 336 116 504 145 112 168 87 261 174 280 280 145 392 203 29 29 336 560 174 145 112 203 
1386 6 2 154 616 16 4 154 4 18 1540 14 4 1232 6 8 2 6 770 18 2 462 10 154 1078 1232 2 770 924 8 1386 10 308 462 6 18 12 770 770 10 1078 14 2 2 924 1540 12 10 308 14 
4966
